sat
(:added-eqs                       2030
 :arith-eq-adapter                336
 :arith-bound-propagations-lp     150
 :arith-branch                    1
 :arith-conflicts                 233
 :arith-diseq                     64
 :arith-fixed-eqs                 137
 :arith-gcd-calls                 34
 :arith-grobner-calls             29
 :arith-grobner-conflicts         11
 :arith-horner-calls              10
 :arith-horner-conflicts          1
 :arith-horner-cross-nested-forms 1659
 :arith-lower                     464
 :arith-make-feasible             336
 :arith-max-columns               1610
 :arith-max-rows                  668
 :arith-nla-add-bounds            7
 :arith-nla-lemmas                149
 :arith-nla-propagate-bounds      72
 :arith-nla-propagate-eq          986
 :arith-nra-calls                 3
 :arith-offset-eqs                255
 :arith-patches                   34
 :arith-patches-success           33
 :arith-upper                     982
 :binary-propagations             1373
 :card2bv-rewrites                1
 :conflicts                       25
 :decisions                       869
 :del-clause                      67
 :elim-unconstrained              15
 :final-checks                    59
 :max-memory                      33.50
 :memory                          20.39
 :minimized-lits                  1
 :mk-bool-var                     2279
 :mk-clause                       722
 :mk-clause-binary                26102
 :nlsat-conflicts                 207
 :nlsat-decisions                 1
 :nlsat-propagations              15931
 :nlsat-stages                    8503
 :num-allocs                      54833680
 :num-checks                      1
 :propagations                    1721
 :rlimit-count                    448571
 :time                            0.22
 :total-time                      0.24)
